NAME: kroA100.opt.tour
COMMENT: 
TYPE: TOUR
DIMENSION: 100
TOUR_SECTION
61
25
81
69
64
40
54
2
44
50
73
68
85
39
30
96
78
52
5
37
33
76
13
95
82
48
100
71
41
14
3
43
46
29
34
83
55
12
27
35
86
20
57
7
9
87
51
77
62
60
23
98
91
45
32
11
15
17
59
74
21
72
10
84
36
99
38
24
18
79
53
88
16
22
94
70
66
65
4
26
19
75
97
56
80
31
89
42
8
92
1
63
6
49
90
47
93
28
67
58
-1
EOF